# vtk DataFile Version 2.0
test grain
ASCII
DATASET UNSTRUCTURED_GRID
POINTS 8 float
0.25 0.25 0.25
0.75 0.25 0.25
0.25 0.75 0.25
0.75 0.75 0.25
0.25 0.25 0.75
0.75 0.25 0.75
0.25 0.75 0.75
0.75 0.75 0.75
CELLS 8 16
1 0
1 1
1 2
1 3
1 4
1 5
1 6
1 7
CELL_TYPES 8
1 
1 
1 
1 
1 
1 
1 
1 
POINT_DATA 8
VECTORS Stress float
0 0 0
0 0 0
0 0 0
0 0 0
0 0 0
0 0 0
0 0 0
0 0 0
